c description: Random 3-CNF over 15 variables and 64 clauses
c generator: CNFgen (0.9.2)
c copyright: (C) 2012-2022 Massimo Lauria <massimo.lauria@uniroma1.it>
c url: https://massimolauria.net/cnfgen
c command line: cnfgen --output ../CNF/15_bit_64_51.cnf randkcnf 3 15 64
c
p cnf 15 64
-1 -8 -9 0
-3 -8 11 0
-8 -11 -14 0
3 -13 15 0
-6 -10 -15 0
-8 -9 15 0
2 4 11 0
1 -3 -15 0
-3 -5 -7 0
-1 -13 14 0
4 12 13 0
-6 -8 -9 0
-5 -8 12 0
-5 -10 15 0
-1 9 14 0
3 6 -9 0
3 9 10 0
1 4 6 0
2 5 -14 0
-10 11 15 0
-2 -4 15 0
-3 -9 15 0
-4 -7 10 0
-2 4 -11 0
1 3 -9 0
2 -7 -14 0
-2 -4 -9 0
-1 -5 -10 0
5 -8 14 0
3 -5 11 0
4 -7 -11 0
4 9 12 0
2 -7 -11 0
3 -4 6 0
-1 -2 -10 0
-3 4 12 0
-3 -5 10 0
-3 4 -14 0
1 -6 -8 0
-1 -11 -12 0
-2 -7 13 0
-5 -12 14 0
12 14 -15 0
-4 -7 -12 0
4 9 -11 0
-3 -4 -10 0
1 3 15 0
6 9 -13 0
1 -4 -7 0
6 7 12 0
1 -4 13 0
2 5 9 0
1 -3 -8 0
1 6 -10 0
2 9 -10 0
1 -2 11 0
10 11 13 0
2 7 10 0
2 -3 8 0
-5 6 9 0
1 -9 -13 0
-2 5 7 0
5 -10 -14 0
1 3 -10 0
